
  32    4
  10   10   10   10

   0   0   0   0   0   2 2 8 
   1   1   1   0   1   2 10 3 
   9   0   5   1   2   2 5 4 
   3   4   4   2   0   3 18 7 6 
   5   0   3   4   5   4 18 17 14 11 
   2   6   4   4   0   2 12 9 
   7   5   2   4   0   3 17 14 11 
  10   5   0   3   5   2 12 11 
  10   4   4   0   3   2 14 11 
   3   6   7   2   0   1 11 
   2   5   5   7   0   2 15 13 
   1   4   7   4   0   2 16 14 
   7   3   5   0   2   2 21 16 
   7   2   4   0   5   2 21 15 
  10   6   6   0   3   3 28 24 19 
   3   3   0   2   2   2 24 19 
   8   4   0   7   5   2 21 20 
  10   0   3   3   3   1 19 
   9   0   3   5   4   1 20 
   8   5   0   3   4   2 27 22 
   8   0   3   4   4   5 31 30 28 27 25 
   3   5   0   7   4   2 31 23 
  10   3   3   3   0   2 30 25 
   2   4   2   0   3   1 25 
   7   3   0   2   4   1 26 
   1   4   0   4   4   1 29 
  10   3   0   6   6   1 29 
   7   2   0   4   7   1 29 
   7   4   6   0   7   1 32
   5   0   3   5   4   1 32
   5   5   0   6   5   1 32
   0   0   0   0   0   0 
